Cell 1                                  
1.0
       13.7713508606         0.0000000000         0.0000000000
        0.0000000000        14.3964366913         0.0000000000
        0.0000000000         0.0000000000        12.6308631897
   Al   Nb   Ta   Ti   Zr
   12   20    8   36   52
Direct
     0.622764468         0.366643310         0.099179044
     0.622764468         0.366643280         0.599179029
     0.622764468         0.866643310         0.099179044
     0.622764468         0.866643310         0.599179029
     0.618397117         0.081134200         0.097496636
     0.618396997         0.081134200         0.597496629
     0.618397057         0.581134200         0.097496636
     0.618397057         0.581134200         0.597496629
     0.979637802         0.495751709         0.475185275
     0.979637802         0.495751709         0.975185275
     0.979637802         0.995751739         0.475185275
     0.979637802         0.995751739         0.975185275
     0.728573084         0.223281994         0.479898930
     0.728573084         0.223281994         0.979898930
     0.728573084         0.723281980         0.479898930
     0.728573084         0.723281980         0.979898930
     0.517395973         0.224382207         0.216323420
     0.517395973         0.224382207         0.716323435
     0.517395973         0.724382222         0.216323420
     0.517395973         0.724382222         0.716323435
     0.618110776         0.094282523         0.351309597
     0.618110776         0.094282515         0.851309538
     0.618110776         0.594282508         0.351309597
     0.618110776         0.594282508         0.851309538
     0.742311478         0.478836864         0.235379726
     0.742311478         0.478836864         0.735379755
     0.742311478         0.978836954         0.235379726
     0.742311478         0.978836894         0.735379755
     0.394052982         0.346588165         0.099201493
     0.394052982         0.346588165         0.599201500
     0.394052982         0.846588135         0.099201493
     0.394052982         0.846588135         0.599201500
     0.619287610         0.351479352         0.349854350
     0.619287610         0.351479352         0.849854350
     0.619287610         0.851479411         0.349854350
     0.619287610         0.851479352         0.849854350
     0.279441983         0.457892179         0.224269509
     0.279441983         0.457892179         0.724269569
     0.279441983         0.957892179         0.224269509
     0.279441983         0.957892179         0.724269569
     0.283242434         0.450759083         0.473503321
     0.283242434         0.450759083         0.973503351
     0.283242434         0.950759053         0.473503321
     0.283242434         0.950759053         0.973503351
     0.740023553         0.477044821         0.461545110
     0.740023553         0.477044821         0.961545110
     0.740023553         0.977044821         0.461545110
     0.740023613         0.977044821         0.961545110
     0.495917559         0.469116688         0.233290941
     0.495917559         0.469116688         0.733290911
     0.495917559         0.969116688         0.233290941
     0.495917559         0.969116688         0.733290911
     0.847246051         0.101531446         0.091361001
     0.847246051         0.101531446         0.591360986
     0.847246051         0.601531446         0.091361001
     0.847246051         0.601531446         0.591360986
     0.852435827         0.108152598         0.359081566
     0.852435827         0.108152598         0.859081566
     0.852435827         0.608152628         0.359081566
     0.852435827         0.608152628         0.859081566
     0.521751046         0.225464806         0.486038238
     0.521751046         0.225464806         0.986038208
     0.521751046         0.725464821         0.486038238
     0.521751046         0.725464821         0.986038208
     0.499438822         0.467667103         0.465664953
     0.499438822         0.467667103         0.965664983
     0.499438822         0.967667103         0.465664953
     0.499438822         0.967667103         0.965664983
     0.400166661         0.331827760         0.351543605
     0.400166661         0.331827760         0.851543605
     0.400166661         0.831827760         0.351543605
     0.400166661         0.831827760         0.851543605
     0.255058110         0.242969528         0.477012187
     0.255058110         0.242969528         0.977012157
     0.255058110         0.742969513         0.477012187
     0.255058110         0.742969513         0.977012157
     0.251825988         0.240432933         0.226456285
     0.251825988         0.240432933         0.726456285
     0.251825988         0.740432918         0.226456285
     0.251825988         0.740432918         0.726456285
     0.865398824         0.354449272         0.095402852
     0.865398824         0.354449302         0.595402837
     0.865398824         0.854449272         0.095402852
     0.865398824         0.854449272         0.595402837
     0.380598128         0.105107188         0.353240222
     0.380598128         0.105107188         0.853240252
     0.380598128         0.605107188         0.353240222
     0.380598158         0.605107188         0.853240252
     0.384080023         0.099955946         0.096380867
     0.384080052         0.099955946         0.596380889
     0.384080052         0.599955916         0.096380867
     0.384080052         0.599955916         0.596380889
     0.116573773         0.366379708         0.355273873
     0.116573773         0.366379678         0.855273843
     0.116573773         0.866379738         0.355273873
     0.116573773         0.866379738         0.855273843
     0.996298611         0.218150839         0.225192204
     0.996298611         0.218150839         0.725192189
     0.996298611         0.718150854         0.225192204
     0.996298611         0.718150854         0.725192189
     0.118693121         0.367123574         0.095160544
     0.118693121         0.367123574         0.595160544
     0.118693121         0.867123604         0.095160544
     0.118693121         0.867123604         0.595160544
     0.999779522         0.209492251         0.478978395
     0.999779522         0.209492251         0.978978395
     0.999779522         0.709492266         0.478978395
     0.999779522         0.709492266         0.978978395
     0.144822702         0.087225646         0.355463177
     0.144822702         0.087225646         0.855463088
     0.144822702         0.587225676         0.355463177
     0.144822702         0.587225676         0.855463088
     0.978880405         0.499789357         0.223704368
     0.978880405         0.499789357         0.723704338
     0.978880405         0.999789357         0.223704368
     0.978880405         0.999789357         0.723704338
     0.147210434         0.086715370         0.094983213
     0.147210449         0.086715370         0.594983220
     0.147210434         0.586715341         0.094983213
     0.147210434         0.586715341         0.594983220
     0.731352508         0.222670600         0.216885582
     0.731352508         0.222670600         0.716885567
     0.731352508         0.722670674         0.216885582
     0.731352508         0.722670615         0.716885567
     0.869232535         0.347701043         0.355739355
     0.869232535         0.347701043         0.855739415
     0.869232535         0.847701073         0.355739355
     0.869232535         0.847701073         0.855739415
