Cell 1
1.0
        4.4573998451         0.0000000000         0.0000000000
        0.0000000000         4.7804603577         0.0000000000
        0.0000000000         0.0000000000         2.7599999905
   Re
    4
Direct
     0.000000000         0.000000000         0.000000000
     0.000000000         0.500000000         0.500000000
     0.500000000         0.166666687         0.500000000
     0.500000000         0.666666687         0.000000000
