Cell 1
1.0
       10.4103317261         0.0000000000         0.0000000000
        0.0000000000         6.0104074478         0.0000000000
        0.0000000000         0.0000000000         7.3612160683
   Al
   24
Direct
     0.000000000         0.000000000         0.000000000
     0.500000000         0.500000000         0.000000000
     0.166666672         0.500000000         0.333333343
     0.833333313         0.500000000         0.666666687
     0.666666687         0.000000000         0.333333343
     0.333333343         0.000000000         0.666666687
     0.166666672         0.000000000         0.333333343
     0.666666687         0.500000000         0.333333343
     0.333333343         0.500000000         0.666666687
     0.000000000         0.500000000         0.000000000
     0.833333313         0.000000000         0.666666687
     0.500000000         0.000000000         0.000000000
     0.916666687         0.750000000         0.333333343
     0.416666687         0.250000000         0.333333343
     0.083333351         0.250000000         0.666666687
     0.750000000         0.250000000         0.000000000
     0.583333373         0.750000000         0.666666687
     0.250000030         0.750000000         0.000000000
     0.916666687         0.250000000         0.333333343
     0.416666687         0.750000000         0.333333343
     0.083333351         0.750000000         0.666666687
     0.750000000         0.750000000         0.000000000
     0.583333373         0.250000000         0.666666687
     0.250000030         0.250000000         0.000000000
