Cell 1                                  
1.0
        7.3484692574         0.0000000000         0.0000000000
        0.0000000000         4.2426404953         0.0000000000
        0.0000000000         0.0000000000         5.1961522102
   Al
    6
Direct
     0.000000000         0.000000000         0.000000000
     0.500000000         0.500000000         0.000000000
     0.166666672         0.500000000         0.333333343
     0.833333313         0.500000000         0.666666687
     0.666666687         0.000000000         0.333333343
     0.333333343         0.000000000         0.666666687
