Cell 1
1.0
        5.2427105904         0.0000000000         0.0000000000
        0.0000000000         4.7804603577         0.0000000000
       -2.3367328771         0.0000000000         4.6931539284
   Re
    8
Direct
     0.000000000         0.000000000         0.000000000
     0.500000000         0.000000000         0.500000000
     0.250000000         0.500000000         0.250000000
     0.750000000         0.500000000         0.750000000
     0.000000000         0.166666672         0.500000000
     0.500000000         0.166666672         0.000000000
     0.750000000         0.666666687         0.250000000
     0.250000000         0.666666687         0.750000000
