Cell 1                                  
1.0
        4.2426404953         0.0000000000         0.0000000000
        0.0000000000         3.0000000000         0.0000000000
        0.0000000000         0.0000000000         4.2426404953
   Al
    2
Direct
     0.000000000         0.000000000         0.000000000
     0.500000000         0.000000000         0.500000000
