Cell 1
1.0
        3.1600000858         0.0000000000         0.0000000000
        0.0000000000         3.1600000858         0.0000000000
        0.0000000000         0.0000000000         3.1600000858
    W
    2
Direct
     0.000000000         0.000000000         0.000000000
     0.500000000         0.500000000         0.500000000
