Cell 1
1.0
        3.1599996090         0.0000000000         0.0000000000
       -0.0000005951         4.4689149857         0.0000000000
       -0.0000005951        -0.0000000000         4.4689149857
    W   Al
    2    2
Direct
     0.000000000         0.000000000         0.000000000
     0.000000000         0.500000000         0.500000000
     0.500000000         0.000000000         0.500000000
     0.500000000         0.500000000         0.000000000
