Cell 1
1.0
        4.4689149857         0.0000000000         0.0000000000
        0.0000000000         3.1600000858         0.0000000000
        0.0000000000         0.0000000000         4.4689149857
    W
    4
Direct
     0.000000000         0.000000000         0.000000000
     0.500000000         0.000000000         0.500000000
     0.000000000         0.500000000         0.500000000
     0.500000000         0.500000000         0.000000000
