Cell 1
1.0
        5.5199999809         0.0000000000         0.0000000000
        0.0000000000         4.4573998451         0.0000000000
       -2.7599999905         0.0000000000         4.7804602124
   Re
    8
Direct
     0.000000000         0.000000000         0.000000000
     0.500000000         0.000000000         0.500000000
     0.000000000         0.000000000         0.499999970
     0.500000000         0.000000000         0.000000000
     0.166666657         0.500000000         0.333333343
     0.666666627         0.500000000         0.833333373
     0.666666627         0.500000000         0.333333343
     0.166666627         0.500000000         0.833333373
