Cell 1
1.0
       10.4854211807         0.0000000000         0.0000000000
        1.4529889037         5.3253378330         0.0000000000
       -0.8837441623         3.1020138378         6.3194397436
   Re
   24
Direct
     0.000000000         0.000000000         0.000000000
     0.500000000         0.500000000         0.000000000
     0.166666672         0.500000000         0.333333343
     0.833333313         0.500000000         0.666666687
     0.666666687         0.000000000         0.333333343
     0.333333343         0.000000000         0.666666687
     0.166666672         0.000000000         0.333333343
     0.666666687         0.500000000         0.333333343
     0.333333343         0.500000000         0.666666687
     0.000000000         0.500000000         0.000000000
     0.833333313         0.000000000         0.666666687
     0.500000000         0.000000000         0.000000000
     0.944444418         0.833333313         0.388888896
     0.444444418         0.333333313         0.388888896
     0.111111082         0.333333313         0.722222209
     0.777777731         0.333333313         0.055555563
     0.611111104         0.833333313         0.722222209
     0.277777761         0.833333313         0.055555563
     0.944444418         0.333333343         0.388888896
     0.444444418         0.833333373         0.388888896
     0.111111082         0.833333373         0.722222209
     0.777777731         0.833333373         0.055555563
     0.611111104         0.333333343         0.722222209
     0.277777761         0.333333343         0.055555563
