Cell 1
1.0
        2.7599999905         0.0000000000         0.0000000000
        0.0000000000         6.5361466408         0.0000000000
        0.0000000000         0.4565975185         6.5201788024
   Re
    8
Direct
     0.000000000         0.000000000         0.000000000
     0.000000000         0.500000000         0.500000000
     0.500000000         0.250000000         0.250000000
     0.500000000         0.750000000         0.750000000
     0.500000000         0.833333313         0.333333343
     0.500000000         0.333333313         0.833333373
     0.000000000         0.083333343         0.583333373
     0.000000000         0.583333373         0.083333373
