Cell 1                                  
1.0
        3.0000000000         0.0000000000         0.0000000000
        0.0000000000         3.0000000000         0.0000000000
        0.0000000000         0.0000000000         3.0000000000
   Al
    1
Direct
     0.000000000         0.000000000         0.000000000
