Cell 1
1.0
        6.0104074478         0.0000000000         0.0000000000
        0.0000000000         4.2500000000         0.0000000000
        0.0000000000         0.0000000000         6.0104074478
   Al
    8
Direct
     0.000000000         0.000000000         0.000000000
     0.500000000         0.000000000         0.500000000
     0.250000000         0.500000000         0.250000000
     0.750000000         0.500000000         0.750000000
     0.000000000         0.000000000         0.500000000
     0.500000000         0.000000000         0.000000000
     0.750000000         0.500000000         0.250000000
     0.250000000         0.500000000         0.750000000
